
Gurobi 9.5.1 (linux64) logging started Mon 06 Jun 2022 10:32:34 AM MST

Set parameter LogFile to value "/home/local/ASUAD/kmajd1/NNRepLayer_v2/demos/examples/tc7_walking_example/repair_net/logs/opt_log_64_nodes_layer4_6_6_2022_10_31_59.log"
Gurobi Optimizer version 9.5.1 build v9.5.1rc2 (linux64)
Thread count: 48 physical cores, 96 logical processors, using up to 32 threads
Optimize a model with 54730 rows, 18266 columns and 332290 nonzeros
Model fingerprint: 0xae754bed
Model has 18201 quadratic objective terms
Coefficient statistics:
  Matrix range     [1e-04, 1e+01]
  Objective range  [2e-05, 2e-01]
  QObjective range [1e-02, 2e+00]
  Bounds range     [1e+01, 4e+01]
  RHS range        [1e-03, 3e+01]
Presolve removed 36434 rows and 17 columns
Presolve time: 0.07s
Presolved: 18296 rows, 18249 columns, 295822 nonzeros
Presolved model has 18201 quadratic objective terms
Ordering time: 0.00s

Barrier statistics:
 Dense cols : 46
 AA' NZ     : 2.915e+05
 Factor NZ  : 3.306e+05 (roughly 20 MB of memory)
 Factor Ops : 8.297e+06 (less than 1 second per iteration)
 Threads    : 32

                  Objective                Residual
Iter       Primal          Dual         Primal    Dual     Compl     Time
   0   6.37739777e+09 -6.52307027e+09  7.09e+03 7.02e+02  1.00e+06     0s
   1   2.83167919e+09 -2.96012578e+09  4.73e+03 4.68e+02  6.74e+05     0s
   2   1.16482625e+08 -2.43546274e+08  9.68e+02 9.58e+01  1.81e+05     0s
   3   7.85773770e+03 -1.15774889e+08  9.33e+00 9.24e-01  4.82e+03     0s
   4   2.56591320e+04 -6.86319502e+07  3.34e-01 3.31e-02  1.91e+03     0s
   5   2.65922479e+04 -1.60241077e+05  6.18e-04 6.12e-05  5.11e+00     0s
   6   1.06543090e+04 -3.94650116e+04  1.36e-04 1.34e-05  1.37e+00     0s
   7   3.62299146e+03 -8.79477371e+03  8.79e-06 8.71e-07  3.39e-01     0s
   8   1.89132494e+03 -1.86298346e+03  2.33e-06 2.30e-07  1.03e-01     0s
   9   1.35389012e+03 -6.31708552e+02  4.58e-07 4.54e-08  5.43e-02     0s
  10   1.20610660e+03  2.34893700e+02  5.19e-08 5.14e-09  2.65e-02     0s
  11   1.17250175e+03  5.92100761e+02  2.25e-08 2.23e-09  1.59e-02     0s
  12   1.15486288e+03  8.54310134e+02  7.13e-09 7.06e-10  8.21e-03     0s
  13   1.14909439e+03  1.00561548e+03  1.80e-09 5.95e-10  3.92e-03     0s
  14   1.14822412e+03  1.08253186e+03  1.46e-10 4.81e-11  1.80e-03     0s
  15   1.14706816e+03  1.13776141e+03  3.11e-12 8.34e-10  2.54e-04     0s
  16   1.14701064e+03  1.14574719e+03  3.84e-13 9.82e-11  3.45e-05     0s
  17   1.14700177e+03  1.14693460e+03  3.55e-14 2.56e-10  1.84e-06     0s
  18   1.14700154e+03  1.14700049e+03  2.84e-14 4.33e-09  2.85e-08     0s
  19   1.14700153e+03  1.14700153e+03  2.84e-14 4.29e-10  1.70e-10     1s

Barrier solved model in 19 iterations and 0.51 seconds (0.37 work units)
Optimal objective 1.14700153e+03

